%mem=10GB
%chk=bomd-sz-online_transfer/bomd.chk
#p bomd(maxpoints=9326) iop(1/8=2000,1/73=025652) iop(1/71=-1)

sz-bomd-cody

1 1
8 -1.14580840 -0.30993004 0.35115444
1  0.00019864 -0.27606190 -0.00023841
1 -1.78417578 -0.79500157 -0.23352464
8  1.14598367 -0.31017712 -0.35158226
1  1.54845882 0.52668428 -0.70108311
1  1.78413502 -0.79522669 0.23336282
1 -1.54824650 0.52680839 0.70095628
8 -2.15229763 1.93581383 1.38448689
8 -2.90918474 -1.63521096 -1.14645145
1 -3.38879430 -2.40591601 -0.81514771
1 -3.00069922 -1.63529196 -2.10813152
1 -2.48126137 1.95908596 2.29306968
1 -2.60782901 2.63894555 0.90291635
8  2.90900092 -1.63524916 1.14665163
8  2.15232405 1.93588469 -1.38426471
1  2.60897348 2.63823438 -0.90260517
1  3.38889043 -2.40569023 0.81511489
1  2.99933840 -1.63640817 2.10844870
1  2.48072778 1.95929880 -2.29305150

