%mem=20GB
%chk=bomd-sz-ml/bomd.chk
#p bomd(maxpoints=9326) iop(1/8=2000,1/73=025652) iop(1/71=-1)

sz-bomd-harry

1 1
8                    -1.1458    0.31236  -0.35115 
1                     0.0002    0.2785    0.00024 
1                    -1.78416   0.79743   0.23352 
8                     1.14598   0.31261   0.35158 
1                     1.54845  -0.52425   0.70108 
1                     1.78413   0.79766  -0.23336 
1                    -1.54824  -0.52437  -0.70095 
8                    -2.15228  -1.93337  -1.38448 
8                    -2.90917   1.63764   1.14645 
1                    -3.38877   2.40834   0.81514 
1                    -3.00068   1.63772   2.10812 
1                    -2.48125  -1.95664  -2.29306 
1                    -2.60781  -2.6365   -0.90291 
8                     2.90899   1.63768  -1.14665 
8                     2.15232  -1.93344   1.38426 
1                     2.60896  -2.63579   0.9026 
1                     3.38888   2.40811  -0.81511 
1                     2.99933   1.63883  -2.10844 
1                     2.48072  -1.95685   2.29304 

